(declare-const |a':53| Int)
(declare-const havoc Int)
(declare-const |K:65| Int)
(declare-const |s':54| Int)
(declare-const |t':55| Int)
(assert (and (or (not (<= (- |K:65|) 0))
                   (= (+ |s':54| (- (* |K:65| |K:65|)) (* -2 |K:65|) -1) 0))
               (or (not (and (<= (- |K:65|) 0) (<= |K:65| 0)))
                     (= (+ |t':55| (* -2 |K:65|) -1) 0))
               (or (not (<= (+ (- |K:65|) 1) 0))
                     (= (+ |t':55| (* -2 |K:65|) -1) 0))
               (or (not (and (<= (- |K:65|) 0) (<= |K:65| 0)))
                     (= (+ |a':53| (- |K:65|)) 0))
               (or (not (<= (+ (- |K:65|) 1) 0)) (= (+ |a':53| (- |K:65|)) 0))
               (or (and (= |K:65| 0) (= (+ (- |t':55|) 1) 0)
                          (= (+ (- |s':54|) 1) 0) (= (- |a':53|) 0))
                     (and (<= (+ (- |K:65|) 1) 0) (<= (+ (- havoc) 1) 0)
                            (= (+ (* 12 |a':53|) (* |t':55| |t':55|)
                                    (* -4 |t':55|) (* -4 |s':54|) 7) 0)
                            (= (+ (* 16 |a':53|) (* |t':55| |t':55|)
                                    (* -6 |t':55|) (* -4 |s':54|) 9) 0)
                            (= (+ (* -2 |a':53|) |t':55| -1) 0)
                            (<= (+ (* -14 |a':53|) (- (* |t':55| |t':55|))
                                     (* 5 |t':55|) (* 4 |s':54|) -8) 0)
                            (<= (+ (- havoc) (* -2 |a':53|) |s':54| -1) 0)
                            (<= (+ (- |a':53|) 1) 0)
                            (<= (+ (* 4 |a':53|) (- |s':54|)) 0)))
               (<= (- |K:65|) 0) (< (- |s':54|) 0) (<= (- |a':53|) 0)
               (< (- |t':55|) 0) (= (+ (* 2 |a':53|) (- |t':55|) 1) 0)
               (= (+ (* -2 |a':53|) |t':55| -1) 0)
               (= (+ (- (* |a':53| |a':53|)) (* -2 |a':53|) |s':54| -1) 0)
               (= (+ (* |t':55| |t':55|) (* 2 |t':55|) (* -4 |s':54|) 1) 0)
               (< (+ havoc (- |s':54|)) 0)
               (= (+ (* -2 |a':53|) |t':55| -1) 0)
               (not (= (+ (- (* |a':53| |a':53|)) (* -2 |a':53|) |s':54| -1) 0))))
(check-sat)
